max_CS_SC =  5 ;
max_CS_SS =  15 ;
max_CS_SDS =  10 ;
max_CS_SPF =  1 ;
max_CS_DI =  15 ;
max_CS_PT =  30 ;
max_CS_PDT =  25 ;
max_PE =  1 ;
max_PE2MHB =  5 ;
max_PE2MT =  5 ;
max_CS_PM =  15 ;
max_DCP_S =  5 ;
max_DEP_S =  5 ;
max_DCP_H =  5 ;
max_DEP_H = 5  ;
max_CAS_DAC =  15 ;
max_CAS_DC =  10 ;
max_CAS_DE = 15  ;
max_CAS_DMA =  5 ;
max_CAS_DRN =  20 ;
max_CAS_DR = 25  ;
max_SE2OC =  50 ;
max_SE = 5  ;
max_SX2OC = 10  ;
max_SX =  5 ;
max_CAS_MH =  20 ;
max_CAS_MP = 10  ;
max_MC_O = 5  ;
max_MC_I =  1 ;
max_PT2MHB_PDT2MHB =  25 ;
max_OC =  10 ;
